Selected objective sense:  MINIMIZE
Selected objective  name:  OBJ
Selected RHS        name:  RHS1
Selected bound      name:  BND1
CPXPARAM_Preprocessing_Presolve                  0
CPXPARAM_LPMethod                                4
CPXPARAM_Threads                                 1
CPXPARAM_SolutionType                            2
CPXPARAM_TimeLimit                               3600
Tried aggregator 0 times.
DUAL formed by presolve
Reduced presolve eliminated 1068 rows and 1116 columns.
Reduced LP has 8172 rows, 3076 columns, and 183172 nonzeros.
Presolve time = 0.04 sec. (42.36 ticks)
Parallel mode: none, using 1 thread for barrier

***NOTE: Found 24 dense columns.

Number of nonzeros in lower triangle of A*A' = 8008
Using Approximate Minimum Degree ordering
Total time for automatic ordering = 0.00 sec. (0.91 ticks)
Summary statistics for Cholesky factor:
  Rows in Factor            = 8196
  Integer space required    = 77180
  Total non-zeros in factor = 202723
  Total FP ops to factor    = 5101443
 Itn      Primal Obj        Dual Obj  Prim Inf Upper Inf  Dual Inf Inf Ratio
   0  -1.6652964e+06   1.6525725e+08  2.17e+04  0.00e+00  8.19e+06  1.00e+00
   1  -8.3725860e+06   1.4686731e+08  1.99e+04  1.45e-12  7.59e+06  8.24e-03
   2  -2.3096857e+07   1.2414110e+08  6.55e+03  1.02e-12  6.61e+06  5.77e-04
   3  -3.0466772e+07   7.6023080e+07  2.20e+03  1.93e-12  4.60e+06  1.75e-04
   4  -4.6924420e+06   1.0415621e+07  2.73e+02  5.47e-12  6.84e+05  8.51e-04
   5  -3.5875428e+06   1.5191938e+06  1.39e+02  2.07e-12  2.31e+05  4.64e-03
   6  -1.2203419e+06   5.0263550e+05  4.75e+01  5.91e-13  8.55e+04  1.09e-02
   7  -4.8287939e+05   3.3684943e+04  1.55e+01  1.56e-12  2.29e+04  5.47e-02
   8  -7.2132075e+04   7.0219166e+03  2.39e+00  4.63e-13  3.12e+03  3.43e-01
   9  -2.5451099e+03   6.0412466e+03  2.61e-01  1.29e-12  2.31e+02  2.69e+00
  10   4.3754677e+03   5.9818253e+03  4.90e-02  1.28e-12  1.26e+01  3.85e+01
  11   5.5070998e+03   5.9571264e+03  1.34e-02  1.99e-12  6.45e+00  3.90e+01
  12   5.7529851e+03   5.9177585e+03  4.55e-03  2.41e-12  3.16e+00  6.07e+01
  13   5.8136823e+03   5.8956708e+03  2.13e-03  7.10e-13  1.78e+00  1.04e+02
  14   5.8296405e+03   5.8932580e+03  1.58e-03  3.12e-12  1.56e+00  1.19e+02
  15   5.8510292e+03   5.8822957e+03  7.36e-04  2.70e-12  8.39e-01  2.25e+02
  16   5.8573497e+03   5.8785647e+03  4.71e-04  9.94e-13  6.12e-01  3.13e+02
  17   5.8635227e+03   5.8752133e+03  2.09e-04  1.56e-12  4.13e-01  4.74e+02
  18   5.8665254e+03   5.8730859e+03  5.76e-05  4.26e-13  2.96e-01  6.89e+02
  19   5.8674741e+03   5.8704459e+03  2.32e-05  8.52e-13  1.39e-01  1.51e+03
  20   5.8677689e+03   5.8697474e+03  1.27e-05  9.94e-13  9.79e-02  2.22e+03
  21   5.8678338e+03   5.8695418e+03  9.48e-06  2.84e-12  8.62e-02  2.57e+03
  22   5.8679608e+03   5.8692092e+03  4.47e-06  1.14e-12  6.67e-02  3.47e+03
  23   5.8679947e+03   5.8689714e+03  3.31e-06  9.94e-13  5.25e-02  4.61e+03
  24   5.8680391e+03   5.8688811e+03  2.09e-06  1.14e-12  4.69e-02  5.25e+03
  25   5.8680650e+03   5.8687230e+03  1.46e-06  1.99e-12  3.71e-02  6.91e+03
  26   5.8681311e+03   5.8683521e+03  5.01e-07  9.94e-13  1.24e-02  2.40e+04
  27   5.8681740e+03   5.8682459e+03  1.11e-07  9.94e-13  4.48e-03  6.94e+04
  28   5.8681774e+03   5.8681999e+03  7.24e-08  8.52e-13  1.17e-03  3.92e+05
  29   5.8681775e+03   5.8681905e+03  1.39e-06  1.40e-12  2.62e-04  1.79e+06
  30   5.8681779e+03   5.8681895e+03  2.73e-05  2.35e-12  1.29e-04  2.96e+06
  31   5.8681832e+03   5.8681882e+03  3.61e-04  1.10e-12  2.68e-05  1.19e+07
  32   5.8681864e+03   5.8681879e+03  5.52e-04  6.90e-13  1.92e-06  6.70e+07
  33   5.8681873e+03   5.8681878e+03  6.24e-04  1.79e-12  2.08e-07  1.14e+08
  34   5.8681875e+03   5.8681878e+03  7.27e-04  6.90e-13  1.45e-07  1.51e+08
  35   5.8681878e+03   5.8681879e+03  1.14e-03  1.93e-12  3.71e-08  9.22e+07
Barrier time = 0.42 sec. (594.41 ticks)

Total time on 1 threads = 0.42 sec. (594.41 ticks)
Solve time: 0.418710468
Barrier iterations: 35
